
;this file is automatically generated: Mon Mar 07 14:04:40 GMT 2016

;declarations generated

(declare-fun type_2b122cca_4bbd_44ae_a0e1_8e00819f77dd_B ( Int) Bool )
(declare-fun type_93f29dc5_5008_4b30_a43c_1bbd1a1d4594_D ( Int) Bool )
(declare-fun obj_1245b8c8_8c73_4c7b_8fad_864bc9aeec76 ( Int) Int )
(declare-fun type_b6e68e65_5627_447b_90fd_94b19b4a02dc_A ( Int) Bool )
(declare-fun aux4 () Int )
(declare-fun type_7f41eeb4_0b60_4fa1_98ae_193e003aa879_C ( Int) Bool )
(declare-fun aux2 () Int )
(declare-fun aux3 () Int )
(declare-fun aux0 () Int )
(declare-fun aux1 () Int )
(declare-fun weight2 () Int )
(declare-fun weight3 () Int )
(declare-fun weight0 () Int )
(declare-fun weight1 () Int )
(declare-fun weight4 () Int )

;formula(s) generated
(assert (and (>= aux0 0) (<= aux0 1)))
(assert (or (or (forall ((b Int)) (=> (and ( type_2b122cca_4bbd_44ae_a0e1_8e00819f77dd_B b )  ( type_b6e68e65_5627_447b_90fd_94b19b4a02dc_A b ) ) (forall ((c Int)) (=> (and ( type_7f41eeb4_0b60_4fa1_98ae_193e003aa879_C c )  ( type_b6e68e65_5627_447b_90fd_94b19b4a02dc_A c ) ) (not (= ( obj_1245b8c8_8c73_4c7b_8fad_864bc9aeec76 b )  ( obj_1245b8c8_8c73_4c7b_8fad_864bc9aeec76 c ) ) ))))) (and (= aux0 1) true)) (and (= aux0 0) false)))
(assert (and (=> (= aux0 0) (= weight0 7)) (=> (= aux0 1) (= weight0 0))))
(assert (and (>= aux1 0) (<= aux1 1)))
(assert (and (>= aux2 0) (<= aux2 1)))
(assert (and (>= aux3 0) (<= aux3 1)))
(assert (and (>= aux4 0) (<= aux4 1)))
(assert (or (or (exists ((p Int)) ( type_b6e68e65_5627_447b_90fd_94b19b4a02dc_A p ) ) (and (= aux1 1) true)) (and (= aux1 0) false)))
(assert (and (=> (= aux1 0) (= weight1 10)) (=> (= aux1 1) (= weight1 0))))
(assert (or (or (exists ((p Int)) (and ( type_2b122cca_4bbd_44ae_a0e1_8e00819f77dd_B p )  ( type_b6e68e65_5627_447b_90fd_94b19b4a02dc_A p ) )) (and (= aux2 1) true)) (and (= aux2 0) false)))
(assert (and (=> (= aux2 0) (= weight2 5)) (=> (= aux2 1) (= weight2 0))))
(assert (or (or (exists ((p Int)) (and ( type_7f41eeb4_0b60_4fa1_98ae_193e003aa879_C p )  ( type_b6e68e65_5627_447b_90fd_94b19b4a02dc_A p ) )) (and (= aux3 1) true)) (and (= aux3 0) false)))
(assert (and (=> (= aux3 0) (= weight3 6)) (=> (= aux3 1) (= weight3 0))))
(assert (or (or (exists ((p Int)) (and (and (and ( type_93f29dc5_5008_4b30_a43c_1bbd1a1d4594_D p )  ( type_b6e68e65_5627_447b_90fd_94b19b4a02dc_A p ) ) ( type_2b122cca_4bbd_44ae_a0e1_8e00819f77dd_B p ) ) ( type_7f41eeb4_0b60_4fa1_98ae_193e003aa879_C p ) )) (and (= aux4 1) true)) (and (= aux4 0) false)))
(assert (and (=> (= aux4 0) (= weight4 5)) (=> (= aux4 1) (= weight4 0))))
(assert (= (+ (+ (+ (+ weight0 weight1) weight2) weight3) weight4) 28))

(assert (not (and (and (and (and (= weight0 7) (= weight1 10)) (= weight2 5)) (= weight3 6)) (= weight4 0)) ))
